c File: flat50_3_0.col
c
c SOURCE: Joseph Culberson (joe@cs.ualberta.ca)
c DESCRIPTION: Quasi-random coloring problem
c              generated with flatness = 0
c                             probability = 0.139
c                             known coloring = 3
c                             random seed = 1212
c              Creation Date:  Tue Jun  9 12:03:51 1998
c Maximum degree = 7 Minimum degree = 1
c p edge 50 115
c cnf created by edge2cnf
p cnf 150 545
-1 -2 0
-1 -3 0
-2 -3 0
1 2 3 0
-4 -5 0
-4 -6 0
-5 -6 0
4 5 6 0
-7 -8 0
-7 -9 0
-8 -9 0
7 8 9 0
-10 -11 0
-10 -12 0
-11 -12 0
10 11 12 0
-13 -14 0
-13 -15 0
-14 -15 0
13 14 15 0
-16 -17 0
-16 -18 0
-17 -18 0
16 17 18 0
-19 -20 0
-19 -21 0
-20 -21 0
19 20 21 0
-22 -23 0
-22 -24 0
-23 -24 0
22 23 24 0
-25 -26 0
-25 -27 0
-26 -27 0
25 26 27 0
-28 -29 0
-28 -30 0
-29 -30 0
28 29 30 0
-31 -32 0
-31 -33 0
-32 -33 0
31 32 33 0
-34 -35 0
-34 -36 0
-35 -36 0
34 35 36 0
-37 -38 0
-37 -39 0
-38 -39 0
37 38 39 0
-40 -41 0
-40 -42 0
-41 -42 0
40 41 42 0
-43 -44 0
-43 -45 0
-44 -45 0
43 44 45 0
-46 -47 0
-46 -48 0
-47 -48 0
46 47 48 0
-49 -50 0
-49 -51 0
-50 -51 0
49 50 51 0
-52 -53 0
-52 -54 0
-53 -54 0
52 53 54 0
-55 -56 0
-55 -57 0
-56 -57 0
55 56 57 0
-58 -59 0
-58 -60 0
-59 -60 0
58 59 60 0
-61 -62 0
-61 -63 0
-62 -63 0
61 62 63 0
-64 -65 0
-64 -66 0
-65 -66 0
64 65 66 0
-67 -68 0
-67 -69 0
-68 -69 0
67 68 69 0
-70 -71 0
-70 -72 0
-71 -72 0
70 71 72 0
-73 -74 0
-73 -75 0
-74 -75 0
73 74 75 0
-76 -77 0
-76 -78 0
-77 -78 0
76 77 78 0
-79 -80 0
-79 -81 0
-80 -81 0
79 80 81 0
-82 -83 0
-82 -84 0
-83 -84 0
82 83 84 0
-85 -86 0
-85 -87 0
-86 -87 0
85 86 87 0
-88 -89 0
-88 -90 0
-89 -90 0
88 89 90 0
-91 -92 0
-91 -93 0
-92 -93 0
91 92 93 0
-94 -95 0
-94 -96 0
-95 -96 0
94 95 96 0
-97 -98 0
-97 -99 0
-98 -99 0
97 98 99 0
-100 -101 0
-100 -102 0
-101 -102 0
100 101 102 0
-103 -104 0
-103 -105 0
-104 -105 0
103 104 105 0
-106 -107 0
-106 -108 0
-107 -108 0
106 107 108 0
-109 -110 0
-109 -111 0
-110 -111 0
109 110 111 0
-112 -113 0
-112 -114 0
-113 -114 0
112 113 114 0
-115 -116 0
-115 -117 0
-116 -117 0
115 116 117 0
-118 -119 0
-118 -120 0
-119 -120 0
118 119 120 0
-121 -122 0
-121 -123 0
-122 -123 0
121 122 123 0
-124 -125 0
-124 -126 0
-125 -126 0
124 125 126 0
-127 -128 0
-127 -129 0
-128 -129 0
127 128 129 0
-130 -131 0
-130 -132 0
-131 -132 0
130 131 132 0
-133 -134 0
-133 -135 0
-134 -135 0
133 134 135 0
-136 -137 0
-136 -138 0
-137 -138 0
136 137 138 0
-139 -140 0
-139 -141 0
-140 -141 0
139 140 141 0
-142 -143 0
-142 -144 0
-143 -144 0
142 143 144 0
-145 -146 0
-145 -147 0
-146 -147 0
145 146 147 0
-148 -149 0
-148 -150 0
-149 -150 0
148 149 150 0
-61 -1 0
-62 -2 0
-63 -3 0
-67 -1 0
-68 -2 0
-69 -3 0
-97 -1 0
-98 -2 0
-99 -3 0
-109 -1 0
-110 -2 0
-111 -3 0
-127 -1 0
-128 -2 0
-129 -3 0
-133 -1 0
-134 -2 0
-135 -3 0
-55 -4 0
-56 -5 0
-57 -6 0
-100 -7 0
-101 -8 0
-102 -9 0
-109 -7 0
-110 -8 0
-111 -9 0
-118 -7 0
-119 -8 0
-120 -9 0
-124 -7 0
-125 -8 0
-126 -9 0
-55 -10 0
-56 -11 0
-57 -12 0
-67 -10 0
-68 -11 0
-69 -12 0
-70 -10 0
-71 -11 0
-72 -12 0
-124 -10 0
-125 -11 0
-126 -12 0
-139 -10 0
-140 -11 0
-141 -12 0
-145 -10 0
-146 -11 0
-147 -12 0
-148 -10 0
-149 -11 0
-150 -12 0
-64 -13 0
-65 -14 0
-66 -15 0
-121 -13 0
-122 -14 0
-123 -15 0
-130 -13 0
-131 -14 0
-132 -15 0
-61 -16 0
-62 -17 0
-63 -18 0
-121 -16 0
-122 -17 0
-123 -18 0
-145 -16 0
-146 -17 0
-147 -18 0
-118 -19 0
-119 -20 0
-120 -21 0
-139 -19 0
-140 -20 0
-141 -21 0
-142 -19 0
-143 -20 0
-144 -21 0
-76 -22 0
-77 -23 0
-78 -24 0
-79 -22 0
-80 -23 0
-81 -24 0
-82 -22 0
-83 -23 0
-84 -24 0
-118 -22 0
-119 -23 0
-120 -24 0
-127 -22 0
-128 -23 0
-129 -24 0
-139 -22 0
-140 -23 0
-141 -24 0
-67 -25 0
-68 -26 0
-69 -27 0
-73 -25 0
-74 -26 0
-75 -27 0
-91 -25 0
-92 -26 0
-93 -27 0
-100 -25 0
-101 -26 0
-102 -27 0
-127 -25 0
-128 -26 0
-129 -27 0
-130 -25 0
-131 -26 0
-132 -27 0
-145 -25 0
-146 -26 0
-147 -27 0
-52 -28 0
-53 -29 0
-54 -30 0
-88 -28 0
-89 -29 0
-90 -30 0
-91 -28 0
-92 -29 0
-93 -30 0
-94 -28 0
-95 -29 0
-96 -30 0
-136 -28 0
-137 -29 0
-138 -30 0
-55 -31 0
-56 -32 0
-57 -33 0
-79 -31 0
-80 -32 0
-81 -33 0
-91 -31 0
-92 -32 0
-93 -33 0
-124 -31 0
-125 -32 0
-126 -33 0
-55 -34 0
-56 -35 0
-57 -36 0
-67 -34 0
-68 -35 0
-69 -36 0
-70 -34 0
-71 -35 0
-72 -36 0
-97 -34 0
-98 -35 0
-99 -36 0
-64 -37 0
-65 -38 0
-66 -39 0
-91 -37 0
-92 -38 0
-93 -39 0
-112 -37 0
-113 -38 0
-114 -39 0
-118 -37 0
-119 -38 0
-120 -39 0
-148 -37 0
-149 -38 0
-150 -39 0
-70 -40 0
-71 -41 0
-72 -42 0
-88 -40 0
-89 -41 0
-90 -42 0
-115 -40 0
-116 -41 0
-117 -42 0
-124 -40 0
-125 -41 0
-126 -42 0
-61 -43 0
-62 -44 0
-63 -45 0
-73 -43 0
-74 -44 0
-75 -45 0
-79 -43 0
-80 -44 0
-81 -45 0
-100 -43 0
-101 -44 0
-102 -45 0
-106 -43 0
-107 -44 0
-108 -45 0
-112 -43 0
-113 -44 0
-114 -45 0
-145 -43 0
-146 -44 0
-147 -45 0
-58 -46 0
-59 -47 0
-60 -48 0
-73 -46 0
-74 -47 0
-75 -48 0
-76 -46 0
-77 -47 0
-78 -48 0
-112 -46 0
-113 -47 0
-114 -48 0
-127 -46 0
-128 -47 0
-129 -48 0
-100 -49 0
-101 -50 0
-102 -51 0
-109 -49 0
-110 -50 0
-111 -51 0
-112 -49 0
-113 -50 0
-114 -51 0
-139 -49 0
-140 -50 0
-141 -51 0
-133 -55 0
-134 -56 0
-135 -57 0
-145 -55 0
-146 -56 0
-147 -57 0
-127 -58 0
-128 -59 0
-129 -60 0
-109 -61 0
-110 -62 0
-111 -63 0
-112 -61 0
-113 -62 0
-114 -63 0
-136 -61 0
-137 -62 0
-138 -63 0
-112 -64 0
-113 -65 0
-114 -66 0
-121 -64 0
-122 -65 0
-123 -66 0
-124 -64 0
-125 -65 0
-126 -66 0
-106 -67 0
-107 -68 0
-108 -69 0
-109 -67 0
-110 -68 0
-111 -69 0
-142 -67 0
-143 -68 0
-144 -69 0
-130 -70 0
-131 -71 0
-132 -72 0
-124 -73 0
-125 -74 0
-126 -75 0
-148 -73 0
-149 -74 0
-150 -75 0
-145 -76 0
-146 -77 0
-147 -78 0
-118 -79 0
-119 -80 0
-120 -81 0
-130 -79 0
-131 -80 0
-132 -81 0
-136 -79 0
-137 -80 0
-138 -81 0
-106 -82 0
-107 -83 0
-108 -84 0
-118 -82 0
-119 -83 0
-120 -84 0
-136 -82 0
-137 -83 0
-138 -84 0
-106 -85 0
-107 -86 0
-108 -87 0
-142 -85 0
-143 -86 0
-144 -87 0
-112 -88 0
-113 -89 0
-114 -90 0
-115 -88 0
-116 -89 0
-117 -90 0
-139 -88 0
-140 -89 0
-141 -90 0
-145 -88 0
-146 -89 0
-147 -90 0
-118 -91 0
-119 -92 0
-120 -93 0
-121 -91 0
-122 -92 0
-123 -93 0
-136 -91 0
-137 -92 0
-138 -93 0
-115 -94 0
-116 -95 0
-117 -96 0
-103 -97 0
-104 -98 0
-105 -99 0
-109 -97 0
-110 -98 0
-111 -99 0
-103 -100 0
-104 -101 0
-105 -102 0
-127 -100 0
-128 -101 0
-129 -102 0
-148 -100 0
-149 -101 0
-150 -102 0
